c 37_4_checker_6cl.cnf
c
c field = 37
c formula set type = 4_checker_6cl
c
p cnf 6 22
64 
66 
68 
70 
-62 
-74 
65 
67 
69 
71 
-63 
-75 
66 
68 
70 
74 
-64 
-76 
67 
69 
71 
75 
-65 
-77 
68 
70 
74 
76 
-66 
-78 
69 
71 
75 
77 
-67 
-79 
70 
74 
76 
78 
-68 
-80 
71 
75 
77 
79 
-69 
-81 
74 
76 
78 
80 
-70 
-82 
75 
77 
79 
81 
-71 
-83 
42 
102 
132 
162 
-12 
-192 
43 
103 
133 
163 
-13 
-193 
102 
132 
162 
192 
-42 
-222 
103 
133 
163 
193 
-43 
-223 
40 
104 
136 
168 
-8 
-200 
41 
105 
137 
169 
-9 
-201 
104 
136 
168 
200 
-40 
-232 
105 
137 
169 
201 
-41 
-233 
44 
100 
128 
156 
-16 
-184 
45 
101 
129 
157 
-17 
-185 
100 
128 
156 
184 
-44 
-212 
101 
129 
157 
185 
-45 
-213 
